* ENCODING=ISO-8859-1
NAME          master_ILP.lp
ROWS
 N  obj1    
 G  w.0     
 G  w.1     
 G  w.2     
 G  w.3     
 G  w.4     
 G  w.5     
 G  w.6     
 G  w.7     
 G  r.0     
 G  r.1     
 G  r.2     
 E  t.0     
 E  t.1     
 E  t.2     
COLUMNS
    x.000     obj1                        17.55
    x.000     w.0                             1
    x.000     r.0                             1
    x.000     t.0                             1
    x.001     obj1                          1.8
    x.001     w.0                             1
    x.001     r.1                             1
    x.001     t.0                             1
    x.002     obj1                         6.75
    x.002     w.0                             1
    x.002     r.2                             1
    x.002     t.0                             1
    x.100     obj1                          8.1
    x.100     w.1                             1
    x.100     r.0                             1
    x.100     t.0                             1
    x.101     obj1                            9
    x.101     w.1                             1
    x.101     r.1                             1
    x.101     t.0                             1
    x.102     obj1                         18.9
    x.102     w.1                             1
    x.102     r.2                             1
    x.102     t.0                             1
    x.200     obj1                          5.4
    x.200     w.2                             1
    x.200     r.0                             1
    x.200     t.0                             1
    x.201     obj1                        14.85
    x.201     w.2                             1
    x.201     r.1                             1
    x.201     t.0                             1
    x.202     obj1                         7.65
    x.202     w.2                             1
    x.202     r.2                             1
    x.202     t.0                             1
    x.300     obj1                        12.15
    x.300     w.3                             1
    x.300     r.0                             1
    x.300     t.0                             1
    x.301     obj1                         9.45
    x.301     w.3                             1
    x.301     r.1                             1
    x.301     t.0                             1
    x.302     obj1                        12.15
    x.302     w.3                             1
    x.302     r.2                             1
    x.302     t.0                             1
    x.400     obj1                         2.25
    x.400     w.4                             1
    x.400     r.0                             1
    x.400     t.0                             1
    x.401     obj1                         20.7
    x.401     w.4                             1
    x.401     r.1                             1
    x.401     t.0                             1
    x.402     obj1                          3.6
    x.402     w.4                             1
    x.402     r.2                             1
    x.402     t.0                             1
    x.500     obj1                          1.8
    x.500     w.5                             1
    x.500     r.0                             1
    x.500     t.0                             1
    x.501     obj1                         8.55
    x.501     w.5                             1
    x.501     r.1                             1
    x.501     t.0                             1
    x.502     obj1                          4.5
    x.502     w.5                             1
    x.502     r.2                             1
    x.502     t.0                             1
    x.600     obj1                        15.75
    x.600     w.6                             1
    x.600     r.0                             1
    x.600     t.0                             1
    x.601     obj1                        13.05
    x.601     w.6                             1
    x.601     r.1                             1
    x.601     t.0                             1
    x.602     obj1                         7.65
    x.602     w.6                             1
    x.602     r.2                             1
    x.602     t.0                             1
    x.700     obj1                         10.8
    x.700     w.7                             1
    x.700     r.0                             1
    x.700     t.0                             1
    x.701     obj1                        10.35
    x.701     w.7                             1
    x.701     r.1                             1
    x.701     t.0                             1
    x.702     obj1                         16.2
    x.702     w.7                             1
    x.702     r.2                             1
    x.702     t.0                             1
    x.010     obj1                       211.73
    x.010     w.0                             1
    x.010     r.0                             1
    x.010     t.1                             1
    x.011     obj1             6.83000000000001
    x.011     w.0                             1
    x.011     r.1                             1
    x.011     t.1                             1
    x.012     obj1                       116.11
    x.012     w.0                             1
    x.012     r.2                             1
    x.012     t.1                             1
    x.110     obj1                       314.18
    x.110     w.1                             1
    x.110     r.0                             1
    x.110     t.1                             1
    x.111     obj1                       327.84
    x.111     w.1                             1
    x.111     r.1                             1
    x.111     t.1                             1
    x.112     obj1                       170.75
    x.112     w.1                             1
    x.112     r.2                             1
    x.112     t.1                             1
    x.210     obj1                       109.28
    x.210     w.2                             1
    x.210     r.0                             1
    x.210     t.1                             1
    x.211     obj1                       293.69
    x.211     w.2                             1
    x.211     r.1                             1
    x.211     t.1                             1
    x.212     obj1                       239.05
    x.212     w.2                             1
    x.212     r.2                             1
    x.212     t.1                             1
    x.310     obj1                       177.58
    x.310     w.3                             1
    x.310     r.0                             1
    x.310     t.1                             1
    x.311     obj1                       293.69
    x.311     w.3                             1
    x.311     r.1                             1
    x.311     t.1                             1
    x.312     obj1                       198.07
    x.312     w.3                             1
    x.312     r.2                             1
    x.312     t.1                             1
    x.410     obj1                       122.94
    x.410     w.4                             1
    x.410     r.0                             1
    x.410     t.1                             1
    x.411     obj1                       334.67
    x.411     w.4                             1
    x.411     r.1                             1
    x.411     t.1                             1
    x.412     obj1                        54.64
    x.412     w.4                             1
    x.412     r.2                             1
    x.412     t.1                             1
    x.510     obj1                        81.96
    x.510     w.5                             1
    x.510     r.0                             1
    x.510     t.1                             1
    x.511     obj1                        81.96
    x.511     w.5                             1
    x.511     r.1                             1
    x.511     t.1                             1
    x.512     obj1                        61.47
    x.512     w.5                             1
    x.512     r.2                             1
    x.512     t.1                             1
    x.610     obj1                       102.45
    x.610     w.6                             1
    x.610     r.0                             1
    x.610     t.1                             1
    x.611     obj1                        273.2
    x.611     w.6                             1
    x.611     r.1                             1
    x.611     t.1                             1
    x.612     obj1                       245.88
    x.612     w.6                             1
    x.612     r.2                             1
    x.612     t.1                             1
    x.710     obj1                       232.22
    x.710     w.7                             1
    x.710     r.0                             1
    x.710     t.1                             1
    x.711     obj1                       232.22
    x.711     w.7                             1
    x.711     r.1                             1
    x.711     t.1                             1
    x.712     obj1                        88.79
    x.712     w.7                             1
    x.712     r.2                             1
    x.712     t.1                             1
    x.020     obj1                         59.5
    x.020     w.0                             1
    x.020     r.0                             1
    x.020     t.2                             1
    x.021     obj1                       243.95
    x.021     w.0                             1
    x.021     r.1                             1
    x.021     t.2                             1
    x.022     obj1                         83.3
    x.022     w.0                             1
    x.022     r.2                             1
    x.022     t.2                             1
    x.120     obj1                        77.35
    x.120     w.1                             1
    x.120     r.0                             1
    x.120     t.2                             1
    x.121     obj1                        214.2
    x.121     w.1                             1
    x.121     r.1                             1
    x.121     t.2                             1
    x.122     obj1                       124.95
    x.122     w.1                             1
    x.122     r.2                             1
    x.122     t.2                             1
    x.220     obj1                         23.8
    x.220     w.2                             1
    x.220     r.0                             1
    x.220     t.2                             1
    x.221     obj1                       172.55
    x.221     w.2                             1
    x.221     r.1                             1
    x.221     t.2                             1
    x.222     obj1                        130.9
    x.222     w.2                             1
    x.222     r.2                             1
    x.222     t.2                             1
    x.320     obj1                         83.3
    x.320     w.3                             1
    x.320     r.0                             1
    x.320     t.2                             1
    x.321     obj1                         83.3
    x.321     w.3                             1
    x.321     r.1                             1
    x.321     t.2                             1
    x.322     obj1                         47.6
    x.322     w.3                             1
    x.322     r.2                             1
    x.322     t.2                             1
    x.420     obj1                       267.75
    x.420     w.4                             1
    x.420     r.0                             1
    x.420     t.2                             1
    x.421     obj1                       208.25
    x.421     w.4                             1
    x.421     r.1                             1
    x.421     t.2                             1
    x.422     obj1                        17.85
    x.422     w.4                             1
    x.422     r.2                             1
    x.422     t.2                             1
    x.520     obj1                        89.25
    x.520     w.5                             1
    x.520     r.0                             1
    x.520     t.2                             1
    x.521     obj1                       220.15
    x.521     w.5                             1
    x.521     r.1                             1
    x.521     t.2                             1
    x.522     obj1                       160.65
    x.522     w.5                             1
    x.522     r.2                             1
    x.522     t.2                             1
    x.620     obj1                       279.65
    x.620     w.6                             1
    x.620     r.0                             1
    x.620     t.2                             1
    x.621     obj1                       184.45
    x.621     w.6                             1
    x.621     r.1                             1
    x.621     t.2                             1
    x.622     obj1                        285.6
    x.622     w.6                             1
    x.622     r.2                             1
    x.622     t.2                             1
    x.720     obj1                         35.7
    x.720     w.7                             1
    x.720     r.0                             1
    x.720     t.2                             1
    x.721     obj1                         23.8
    x.721     w.7                             1
    x.721     r.1                             1
    x.721     t.2                             1
    x.722     obj1                        178.5
    x.722     w.7                             1
    x.722     r.2                             1
    x.722     t.2                             1
    y.0       obj1                           45
    y.0       t.0                             1
    y.1       obj1                          683
    y.1       t.1                             1
    y.2       obj1                          595
    y.2       t.2                             1
RHS
    rhs       t.0                             1
    rhs       t.1                             1
    rhs       t.2                             1
RANGES
    rng       w.0                             1
    rng       w.1                             1
    rng       w.2                             1
    rng       w.3                             1
    rng       w.4                             1
    rng       w.5                             1
    rng       w.6                             1
    rng       w.7                             1
    rng       r.0                             8
    rng       r.1                             8
    rng       r.2                             8
BOUNDS
 UP bnd       x.000                           1
 UP bnd       x.001                           1
 UP bnd       x.002                           1
 UP bnd       x.100                           1
 UP bnd       x.101                           1
 UP bnd       x.102                           1
 UP bnd       x.200                           1
 UP bnd       x.201                           1
 UP bnd       x.202                           1
 UP bnd       x.300                           1
 UP bnd       x.301                           1
 UP bnd       x.302                           1
 UP bnd       x.400                           1
 UP bnd       x.401                           1
 UP bnd       x.402                           1
 UP bnd       x.500                           1
 UP bnd       x.501                           1
 UP bnd       x.502                           1
 UP bnd       x.600                           1
 UP bnd       x.601                           1
 UP bnd       x.602                           1
 UP bnd       x.700                           1
 UP bnd       x.701                           1
 UP bnd       x.702                           1
 UP bnd       x.010                           1
 UP bnd       x.011                           1
 UP bnd       x.012                           1
 UP bnd       x.110                           1
 UP bnd       x.111                           1
 UP bnd       x.112                           1
 UP bnd       x.210                           1
 UP bnd       x.211                           1
 UP bnd       x.212                           1
 UP bnd       x.310                           1
 UP bnd       x.311                           1
 UP bnd       x.312                           1
 UP bnd       x.410                           1
 UP bnd       x.411                           1
 UP bnd       x.412                           1
 UP bnd       x.510                           1
 UP bnd       x.511                           1
 UP bnd       x.512                           1
 UP bnd       x.610                           1
 UP bnd       x.611                           1
 UP bnd       x.612                           1
 UP bnd       x.710                           1
 UP bnd       x.711                           1
 UP bnd       x.712                           1
 UP bnd       x.020                           1
 UP bnd       x.021                           1
 UP bnd       x.022                           1
 UP bnd       x.120                           1
 UP bnd       x.121                           1
 UP bnd       x.122                           1
 UP bnd       x.220                           1
 UP bnd       x.221                           1
 UP bnd       x.222                           1
 UP bnd       x.320                           1
 UP bnd       x.321                           1
 UP bnd       x.322                           1
 UP bnd       x.420                           1
 UP bnd       x.421                           1
 UP bnd       x.422                           1
 UP bnd       x.520                           1
 UP bnd       x.521                           1
 UP bnd       x.522                           1
 UP bnd       x.620                           1
 UP bnd       x.621                           1
 UP bnd       x.622                           1
 UP bnd       x.720                           1
 UP bnd       x.721                           1
 UP bnd       x.722                           1
 UP bnd       y.0                             1
 UP bnd       y.1                             1
 UP bnd       y.2                             1
ENDATA
